14 10
6 13 1 9 3 4 0 7 8 12 11 2 10 5 
1 9 8 5 7 0 3 12 13 4 11 6 2 10 
7 12 13 3 5 11 4 10 8 2 9 6 1 0 
7 2 0 4 8 9 6 1 11 5 12 3 10 13 
9 12 13 8 6 2 0 10 1 3 4 11 7 5 
0 3 10 7 11 5 12 6 4 2 9 13 1 8 
11 9 4 12 7 13 1 3 0 10 8 6 5 2 
4 10 5 9 12 1 8 13 7 3 2 6 11 0 
3 7 13 12 11 10 5 1 9 4 0 6 8 2 
6 4 13 0 2 1 8 12 7 3 10 5 9 11 
